Route #1: 1 42 36 33 30 26 28 41 5 22 6 1
Route #2: 1 34 21 10 18 40 35 17 16 8 11 12 1
Route #3: 1 13 39 32 3 9 24 37 1
Route #4: 1 4 31 14 23 25 7 1
Route #5: 1 19 20 15 29 38 2 1
Route #6: 1 27 43 1
cost 868
